
Gurobi 11.0.0 (win64) logging started Sat Jun 15 09:43:50 2024


Gurobi 11.0.0 (win64) logging started Sat Jun 15 10:42:21 2024


Gurobi 11.0.0 (win64) logging started Sat Jun 15 11:01:01 2024


Gurobi 11.0.0 (win64) logging started Sat Jun 15 13:54:45 2024


Gurobi 11.0.0 (win64) logging started Tue Jul  2 10:33:15 2024

